NAME : n100w20.004.828.tour
COMMENT : Length = 828
COMMENT : Found by LKH [Keld Helsgaun] Tue May  2 05:48:13 2017
TYPE : TOUR
DIMENSION : 101
TOUR_SECTION
1
97
90
58
40
43
27
23
24
7
72
52
67
78
35
73
39
62
65
86
30
28
26
37
68
83
8
76
10
81
21
82
9
12
94
44
42
13
45
98
75
32
46
93
49
36
55
88
79
74
57
38
63
3
18
48
14
84
11
92
69
51
96
34
53
66
54
25
59
17
95
60
31
85
15
22
33
80
99
16
47
89
6
87
56
64
91
41
5
20
50
71
19
2
61
29
4
77
101
100
70
-1
EOF
